NAME          
ROWS
 N  OBJ
 L  c2
 L  c3
 L  c4
 L  c5
 L  c6
 G  c1
COLUMNS
    ss[1]     c1        1
    ss[1]     OBJ       1000
    s[1]      c2        1
    s[1]      OBJ       -1000
    s[2]      c3        1
    s[2]      OBJ       -1000
    s[3]      c4        1
    s[3]      OBJ       -1000
    s[4]      c5        1
    s[4]      OBJ       -1000
    s[5]      c6        1
    s[5]      OBJ       -1000
    MARKER    'MARKER'                 'INTORG'
    x[1]      c2        22
    x[1]      c3        807
    x[1]      c4        417
    x[1]      c5        779
    x[1]      c6        846
    x[1]      c1        556
    x[1]      OBJ       -375
    x[2]      c2        941
    x[2]      c3        44
    x[2]      c4        957
    x[2]      c5        424
    x[2]      c6        738
    x[2]      c1        125
    x[2]      OBJ       -811
    x[3]      c2        982
    x[3]      c3        590
    x[3]      c4        629
    x[3]      c5        839
    x[3]      c6        345
    x[3]      c1        736
    x[3]      OBJ       -208
    x[4]      c2        821
    x[4]      c3        202
    x[4]      c4        830
    x[4]      c5        29
    x[4]      c6        51
    x[4]      c1        557
    x[4]      OBJ       -30
    x[5]      c2        7
    x[5]      c3        410
    x[5]      c4        195
    x[5]      c5        425
    x[5]      c6        806
    x[5]      c1        301
    x[5]      OBJ       -129
    x[6]      c2        16
    x[6]      c3        979
    x[6]      c4        358
    x[6]      c5        301
    x[6]      c6        255
    x[6]      c1        6
    x[6]      OBJ       -807
    x[7]      c2        471
    x[7]      c3        268
    x[7]      c4        194
    x[7]      c5        140
    x[7]      c6        88
    x[7]      c1        111
    x[7]      OBJ       -127
    x[8]      c2        932
    x[8]      c3        9
    x[8]      c4        354
    x[8]      c5        571
    x[8]      c6        385
    x[8]      c1        16
    x[8]      OBJ       -671
    x[9]      c2        107
    x[9]      c3        250
    x[9]      c4        898
    x[9]      c5        101
    x[9]      c6        574
    x[9]      c1        704
    x[9]      OBJ       -47
    x[10]     c2        465
    x[10]     c3        217
    x[10]     c4        96
    x[10]     c5        181
    x[10]     c6        122
    x[10]     c1        952
    x[10]     OBJ       344
    x[11]     c2        692
    x[11]     c3        326
    x[11]     c4        886
    x[11]     c5        362
    x[11]     c6        620
    x[11]     c1        408
    x[11]     OBJ       -423
    x[12]     c2        528
    x[12]     c3        191
    x[12]     c4        269
    x[12]     c5        439
    x[12]     c6        899
    x[12]     c1        492
    x[12]     OBJ       -139
    x[13]     c2        391
    x[13]     c3        753
    x[13]     c4        824
    x[13]     c5        142
    x[13]     c6        617
    x[13]     c1        163
    x[13]     OBJ       -721
    x[14]     c2        431
    x[14]     c3        833
    x[14]     c4        501
    x[14]     c5        401
    x[14]     c6        50
    x[14]     c1        938
    x[14]     OBJ       -38
    x[15]     c2        442
    x[15]     c3        303
    x[15]     c4        914
    x[15]     c5        467
    x[15]     c6        905
    x[15]     c1        315
    x[15]     OBJ       -732
    x[16]     c2        68
    x[16]     c3        370
    x[16]     c4        107
    x[16]     c5        385
    x[16]     c6        190
    x[16]     c1        949
    x[16]     OBJ       400
    x[17]     c2        183
    x[17]     c3        816
    x[17]     c4        689
    x[17]     c5        910
    x[17]     c6        271
    x[17]     c1        670
    x[17]     OBJ       -77
    x[18]     c2        642
    x[18]     c3        191
    x[18]     c4        981
    x[18]     c5        23
    x[18]     c6        605
    x[18]     c1        1000
    x[18]     OBJ       -15
    x[19]     c2        784
    x[19]     c3        641
    x[19]     c4        231
    x[19]     c5        407
    x[19]     c6        213
    x[19]     c1        457
    x[19]     OBJ       -417
    x[20]     c2        554
    x[20]     c3        412
    x[20]     c4        551
    x[20]     c5        139
    x[20]     c6        695
    x[20]     c1        816
    x[20]     OBJ       -79
    x[21]     c2        4
    x[21]     c3        240
    x[21]     c4        661
    x[21]     c5        268
    x[21]     c6        133
    x[21]     c1        357
    x[21]     OBJ       -261
    x[22]     c2        723
    x[22]     c3        982
    x[22]     c4        220
    x[22]     c5        691
    x[22]     c6        805
    x[22]     c1        495
    x[22]     OBJ       -638
    x[23]     c2        334
    x[23]     c3        432
    x[23]     c4        762
    x[23]     c5        933
    x[23]     c6        230
    x[23]     c1        916
    x[23]     OBJ       167
    x[24]     c2        683
    x[24]     c3        22
    x[24]     c4        612
    x[24]     c5        546
    x[24]     c6        322
    x[24]     c1        852
    x[24]     OBJ       -43
    x[25]     c2        219
    x[25]     c3        304
    x[25]     c4        107
    x[25]     c5        50
    x[25]     c6        123
    x[25]     c1        614
    x[25]     OBJ       -6
    x[26]     c2        708
    x[26]     c3        161
    x[26]     c4        572
    x[26]     c5        965
    x[26]     c6        833
    x[26]     c1        161
    x[26]     OBJ       -750
    x[27]     c2        102
    x[27]     c3        793
    x[27]     c4        928
    x[27]     c5        55
    x[27]     c6        312
    x[27]     c1        60
    x[27]     OBJ       -771
    x[28]     c2        878
    x[28]     c3        169
    x[28]     c4        204
    x[28]     c5        606
    x[28]     c6        410
    x[28]     c1        382
    x[28]     OBJ       -443
    x[29]     c2        286
    x[29]     c3        619
    x[29]     c4        976
    x[29]     c5        319
    x[29]     c6        691
    x[29]     c1        373
    x[29]     OBJ       -518
    x[30]     c2        167
    x[30]     c3        888
    x[30]     c4        59
    x[30]     c5        41
    x[30]     c6        435
    x[30]     c1        570
    x[30]     OBJ       -72
    x[31]     c2        149
    x[31]     c3        630
    x[31]     c4        786
    x[31]     c5        630
    x[31]     c6        851
    x[31]     c1        182
    x[31]     OBJ       -558
    x[32]     c2        977
    x[32]     c3        268
    x[32]     c4        909
    x[32]     c5        346
    x[32]     c6        79
    x[32]     c1        934
    x[32]     OBJ       -12
    x[33]     c2        574
    x[33]     c3        671
    x[33]     c4        794
    x[33]     c5        946
    x[33]     c6        247
    x[33]     c1        129
    x[33]     OBJ       -611
    x[34]     c2        624
    x[34]     c3        495
    x[34]     c4        26
    x[34]     c5        41
    x[34]     c6        636
    x[34]     c1        542
    x[34]     OBJ       -318
    x[35]     c2        984
    x[35]     c3        679
    x[35]     c4        694
    x[35]     c5        475
    x[35]     c6        742
    x[35]     c1        767
    x[35]     OBJ       -188
    x[36]     c2        99
    x[36]     c3        508
    x[36]     c4        982
    x[36]     c5        194
    x[36]     c6        371
    x[36]     c1        964
    x[36]     OBJ       198
    x[37]     c2        447
    x[37]     c3        998
    x[37]     c4        312
    x[37]     c5        547
    x[37]     c6        383
    x[37]     c1        896
    x[37]     OBJ       245
    x[38]     c2        945
    x[38]     c3        453
    x[38]     c4        163
    x[38]     c5        202
    x[38]     c6        370
    x[38]     c1        350
    x[38]     OBJ       -165
    x[39]     c2        814
    x[39]     c3        423
    x[39]     c4        723
    x[39]     c5        536
    x[39]     c6        685
    x[39]     c1        178
    x[39]     OBJ       -522
    x[40]     c2        454
    x[40]     c3        7
    x[40]     c4        157
    x[40]     c5        343
    x[40]     c6        387
    x[40]     c1        557
    x[40]     OBJ       -21
    x[41]     c2        617
    x[41]     c3        452
    x[41]     c4        709
    x[41]     c5        697
    x[41]     c6        661
    x[41]     c1        975
    x[41]     OBJ       -135
    x[42]     c2        865
    x[42]     c3        441
    x[42]     c4        472
    x[42]     c5        697
    x[42]     c6        260
    x[42]     c1        70
    x[42]     OBJ       -884
    x[43]     c2        482
    x[43]     c3        92
    x[43]     c4        379
    x[43]     c5        794
    x[43]     c6        388
    x[43]     c1        226
    x[43]     OBJ       -450
    x[44]     c2        333
    x[44]     c3        703
    x[44]     c4        894
    x[44]     c5        676
    x[44]     c6        573
    x[44]     c1        356
    x[44]     OBJ       -515
    x[45]     c2        887
    x[45]     c3        677
    x[45]     c4        576
    x[45]     c5        603
    x[45]     c6        209
    x[45]     c1        404
    x[45]     OBJ       -596
    x[46]     c2        244
    x[46]     c3        476
    x[46]     c4        595
    x[46]     c5        44
    x[46]     c6        227
    x[46]     c1        79
    x[46]     OBJ       -549
    x[47]     c2        669
    x[47]     c3        484
    x[47]     c4        94
    x[47]     c5        88
    x[47]     c6        313
    x[47]     c1        833
    x[47]     OBJ       -50
    x[48]     c2        105
    x[48]     c3        535
    x[48]     c4        587
    x[48]     c5        669
    x[48]     c6        406
    x[48]     c1        616
    x[48]     OBJ       -56
    x[49]     c2        26
    x[49]     c3        235
    x[49]     c4        469
    x[49]     c5        311
    x[49]     c6        155
    x[49]     c1        575
    x[49]     OBJ       -1
    x[50]     c2        592
    x[50]     c3        671
    x[50]     c4        697
    x[50]     c5        992
    x[50]     c6        713
    x[50]     c1        987
    x[50]     OBJ       169
    x[51]     c2        277
    x[51]     c3        432
    x[51]     c4        154
    x[51]     c5        8
    x[51]     c6        522
    x[51]     c1        340
    x[51]     OBJ       -229
    x[52]     c2        76
    x[52]     c3        119
    x[52]     c4        742
    x[52]     c5        165
    x[52]     c6        657
    x[52]     c1        794
    x[52]     OBJ       216
    x[53]     c2        372
    x[53]     c3        738
    x[53]     c4        193
    x[53]     c5        716
    x[53]     c6        972
    x[53]     c1        321
    x[53]     OBJ       -353
    x[54]     c2        565
    x[54]     c3        659
    x[54]     c4        773
    x[54]     c5        590
    x[54]     c6        7
    x[54]     c1        337
    x[54]     OBJ       -571
    x[55]     c2        408
    x[55]     c3        673
    x[55]     c4        796
    x[55]     c5        590
    x[55]     c6        172
    x[55]     c1        580
    x[55]     OBJ       -6
    x[56]     c2        345
    x[56]     c3        7
    x[56]     c4        639
    x[56]     c5        636
    x[56]     c6        358
    x[56]     c1        920
    x[56]     OBJ       516
    x[57]     c2        524
    x[57]     c3        589
    x[57]     c4        615
    x[57]     c5        288
    x[57]     c6        299
    x[57]     c1        425
    x[57]     OBJ       -260
    x[58]     c2        786
    x[58]     c3        26
    x[58]     c4        270
    x[58]     c5        260
    x[58]     c6        496
    x[58]     c1        170
    x[58]     OBJ       -468
    x[59]     c2        406
    x[59]     c3        613
    x[59]     c4        845
    x[59]     c5        28
    x[59]     c6        271
    x[59]     c1        955
    x[59]     OBJ       -18
    x[60]     c2        441
    x[60]     c3        437
    x[60]     c4        726
    x[60]     c5        322
    x[60]     c6        344
    x[60]     c1        581
    x[60]     OBJ       -99
    x[61]     c2        20
    x[61]     c3        141
    x[61]     c4        390
    x[61]     c5        929
    x[61]     c6        936
    x[61]     c1        739
    x[61]     OBJ       -62
    x[62]     c2        704
    x[62]     c3        945
    x[62]     c4        200
    x[62]     c5        437
    x[62]     c6        638
    x[62]     c1        622
    x[62]     OBJ       -380
    x[63]     c2        217
    x[63]     c3        752
    x[63]     c4        862
    x[63]     c5        599
    x[63]     c6        290
    x[63]     c1        473
    x[63]     OBJ       -244
    x[64]     c2        167
    x[64]     c3        655
    x[64]     c4        328
    x[64]     c5        79
    x[64]     c6        709
    x[64]     c1        789
    x[64]     OBJ       264
    x[65]     c2        748
    x[65]     c3        108
    x[65]     c4        927
    x[65]     c5        892
    x[65]     c6        426
    x[65]     c1        946
    x[65]     OBJ       -82
    x[66]     c2        151
    x[66]     c3        634
    x[66]     c4        411
    x[66]     c5        120
    x[66]     c6        600
    x[66]     c1        499
    x[66]     OBJ       -231
    x[67]     c2        518
    x[67]     c3        578
    x[67]     c4        857
    x[67]     c5        255
    x[67]     c6        978
    x[67]     c1        666
    x[67]     OBJ       -388
    x[68]     c2        606
    x[68]     c3        95
    x[68]     c4        866
    x[68]     c5        158
    x[68]     c6        532
    x[68]     c1        546
    x[68]     OBJ       -8
    x[69]     c2        596
    x[69]     c3        501
    x[69]     c4        232
    x[69]     c5        319
    x[69]     c6        530
    x[69]     c1        630
    x[69]     OBJ       152
    x[70]     c2        170
    x[70]     c3        99
    x[70]     c4        638
    x[70]     c5        297
    x[70]     c6        376
    x[70]     c1        997
    x[70]     OBJ       550
    x[71]     c2        369
    x[71]     c3        229
    x[71]     c4        93
    x[71]     c5        373
    x[71]     c6        754
    x[71]     c1        462
    x[71]     OBJ       -253
    x[72]     c2        184
    x[72]     c3        289
    x[72]     c4        814
    x[72]     c5        540
    x[72]     c6        800
    x[72]     c1        750
    x[72]     OBJ       -237
    x[73]     c2        491
    x[73]     c3        994
    x[73]     c4        402
    x[73]     c5        399
    x[73]     c6        148
    x[73]     c1        841
    x[73]     OBJ       163
    x[74]     c2        364
    x[74]     c3        1000
    x[74]     c4        10
    x[74]     c5        946
    x[74]     c6        350
    x[74]     c1        795
    x[74]     OBJ       -73
    x[75]     c2        874
    x[75]     c3        179
    x[75]     c4        79
    x[75]     c5        282
    x[75]     c6        249
    x[75]     c1        2
    x[75]     OBJ       -384
    x[76]     c2        317
    x[76]     c3        390
    x[76]     c4        336
    x[76]     c5        813
    x[76]     c6        838
    x[76]     c1        522
    x[76]     OBJ       -148
    x[77]     c2        235
    x[77]     c3        770
    x[77]     c4        481
    x[77]     c5        576
    x[77]     c6        344
    x[77]     c1        778
    x[77]     OBJ       -76
    x[78]     c2        975
    x[78]     c3        785
    x[78]     c4        414
    x[78]     c5        455
    x[78]     c6        927
    x[78]     c1        42
    x[78]     OBJ       -990
    x[79]     c2        481
    x[79]     c3        577
    x[79]     c4        232
    x[79]     c5        595
    x[79]     c6        622
    x[79]     c1        714
    x[79]     OBJ       -107
    x[80]     c2        901
    x[80]     c3        94
    x[80]     c4        951
    x[80]     c5        193
    x[80]     c6        840
    x[80]     c1        645
    x[80]     OBJ       -323
    x[81]     c2        225
    x[81]     c3        529
    x[81]     c4        233
    x[81]     c5        320
    x[81]     c6        908
    x[81]     c1        855
    x[81]     OBJ       370
    x[82]     c2        320
    x[82]     c3        92
    x[82]     c4        605
    x[82]     c5        916
    x[82]     c6        67
    x[82]     c1        396
    x[82]     OBJ       -126
    x[83]     c2        786
    x[83]     c3        797
    x[83]     c4        227
    x[83]     c5        574
    x[83]     c6        660
    x[83]     c1        768
    x[83]     OBJ       -253
    x[84]     c2        678
    x[84]     c3        727
    x[84]     c4        932
    x[84]     c5        632
    x[84]     c6        895
    x[84]     c1        392
    x[84]     OBJ       -468
    x[85]     c2        613
    x[85]     c3        53
    x[85]     c4        139
    x[85]     c5        963
    x[85]     c6        576
    x[85]     c1        141
    x[85]     OBJ       -334
    x[86]     c2        252
    x[86]     c3        24
    x[86]     c4        937
    x[86]     c5        351
    x[86]     c6        953
    x[86]     c1        544
    x[86]     OBJ       -174
    x[87]     c2        529
    x[87]     c3        193
    x[87]     c4        875
    x[87]     c5        636
    x[87]     c6        365
    x[87]     c1        847
    x[87]     OBJ       150
    x[88]     c2        652
    x[88]     c3        168
    x[88]     c4        132
    x[88]     c5        827
    x[88]     c6        347
    x[88]     c1        263
    x[88]     OBJ       -619
    x[89]     c2        70
    x[89]     c3        73
    x[89]     c4        210
    x[89]     c5        228
    x[89]     c6        919
    x[89]     c1        325
    x[89]     OBJ       -63
    x[90]     c2        816
    x[90]     c3        310
    x[90]     c4        286
    x[90]     c5        669
    x[90]     c6        555
    x[90]     c1        227
    x[90]     OBJ       -694
    x[91]     c2        284
    x[91]     c3        109
    x[91]     c4        415
    x[91]     c5        836
    x[91]     c6        608
    x[91]     c1        765
    x[91]     OBJ       -103
    x[92]     c2        468
    x[92]     c3        924
    x[92]     c4        54
    x[92]     c5        294
    x[92]     c6        546
    x[92]     c1        128
    x[92]     OBJ       -340
    x[93]     c2        482
    x[93]     c3        628
    x[93]     c4        649
    x[93]     c5        768
    x[93]     c6        672
    x[93]     c1        10
    x[93]     OBJ       -677
    x[94]     c2        691
    x[94]     c3        80
    x[94]     c4        742
    x[94]     c5        917
    x[94]     c6        241
    x[94]     c1        973
    x[94]     OBJ       -75
    x[95]     c2        683
    x[95]     c3        190
    x[95]     c4        677
    x[95]     c5        851
    x[95]     c6        122
    x[95]     c1        162
    x[95]     OBJ       -719
    x[96]     c2        591
    x[96]     c3        663
    x[96]     c4        571
    x[96]     c5        351
    x[96]     c6        481
    x[96]     c1        743
    x[96]     OBJ       190
    x[97]     c2        128
    x[97]     c3        279
    x[97]     c4        969
    x[97]     c5        642
    x[97]     c6        840
    x[97]     c1        208
    x[97]     OBJ       -580
    x[98]     c2        53
    x[98]     c3        454
    x[98]     c4        640
    x[98]     c5        942
    x[98]     c6        806
    x[98]     c1        223
    x[98]     OBJ       -771
    x[99]     c2        664
    x[99]     c3        904
    x[99]     c4        375
    x[99]     c5        645
    x[99]     c6        526
    x[99]     c1        981
    x[99]     OBJ       176
    x[100]    c2        431
    x[100]    c3        106
    x[100]    c4        976
    x[100]    c5        455
    x[100]    c6        710
    x[100]    c1        143
    x[100]    OBJ       -671
RHS
    rhs       c2        23587
    rhs       c3        22266
    rhs       c4        26460
    rhs       c5        23724
    rhs       c6        25004
    rhs       c1        2632
RANGES
BOUNDS
 LO bounds    ss[1]     0
 PL bounds    ss[1]
 MI bounds    s[1]
 UP bounds    s[1]      0
 MI bounds    s[2]
 UP bounds    s[2]      0
 MI bounds    s[3]
 UP bounds    s[3]      0
 MI bounds    s[4]
 UP bounds    s[4]      0
 MI bounds    s[5]
 UP bounds    s[5]      0
 BV bounds    x[1]
 BV bounds    x[2]
 BV bounds    x[3]
 BV bounds    x[4]
 BV bounds    x[5]
 BV bounds    x[6]
 BV bounds    x[7]
 BV bounds    x[8]
 BV bounds    x[9]
 BV bounds    x[10]
 BV bounds    x[11]
 BV bounds    x[12]
 BV bounds    x[13]
 BV bounds    x[14]
 BV bounds    x[15]
 BV bounds    x[16]
 BV bounds    x[17]
 BV bounds    x[18]
 BV bounds    x[19]
 BV bounds    x[20]
 BV bounds    x[21]
 BV bounds    x[22]
 BV bounds    x[23]
 BV bounds    x[24]
 BV bounds    x[25]
 BV bounds    x[26]
 BV bounds    x[27]
 BV bounds    x[28]
 BV bounds    x[29]
 BV bounds    x[30]
 BV bounds    x[31]
 BV bounds    x[32]
 BV bounds    x[33]
 BV bounds    x[34]
 BV bounds    x[35]
 BV bounds    x[36]
 BV bounds    x[37]
 BV bounds    x[38]
 BV bounds    x[39]
 BV bounds    x[40]
 BV bounds    x[41]
 BV bounds    x[42]
 BV bounds    x[43]
 BV bounds    x[44]
 BV bounds    x[45]
 BV bounds    x[46]
 BV bounds    x[47]
 BV bounds    x[48]
 BV bounds    x[49]
 BV bounds    x[50]
 BV bounds    x[51]
 BV bounds    x[52]
 BV bounds    x[53]
 BV bounds    x[54]
 BV bounds    x[55]
 BV bounds    x[56]
 BV bounds    x[57]
 BV bounds    x[58]
 BV bounds    x[59]
 BV bounds    x[60]
 BV bounds    x[61]
 BV bounds    x[62]
 BV bounds    x[63]
 BV bounds    x[64]
 BV bounds    x[65]
 BV bounds    x[66]
 BV bounds    x[67]
 BV bounds    x[68]
 BV bounds    x[69]
 BV bounds    x[70]
 BV bounds    x[71]
 BV bounds    x[72]
 BV bounds    x[73]
 BV bounds    x[74]
 BV bounds    x[75]
 BV bounds    x[76]
 BV bounds    x[77]
 BV bounds    x[78]
 BV bounds    x[79]
 BV bounds    x[80]
 BV bounds    x[81]
 BV bounds    x[82]
 BV bounds    x[83]
 BV bounds    x[84]
 BV bounds    x[85]
 BV bounds    x[86]
 BV bounds    x[87]
 BV bounds    x[88]
 BV bounds    x[89]
 BV bounds    x[90]
 BV bounds    x[91]
 BV bounds    x[92]
 BV bounds    x[93]
 BV bounds    x[94]
 BV bounds    x[95]
 BV bounds    x[96]
 BV bounds    x[97]
 BV bounds    x[98]
 BV bounds    x[99]
 BV bounds    x[100]
ENDATA
